c Reduced graph for GEOM120a_1 generated by Cyril Grelier
p edge 119 1421
v 1 10
v 2 10
v 3 10
v 4 10
v 5 10
v 6 10
v 7 10
v 8 10
v 9 10
v 10 10
v 11 10
v 12 9
v 13 9
v 14 9
v 15 9
v 16 9
v 17 9
v 18 9
v 19 9
v 20 9
v 21 9
v 22 8
v 23 8
v 24 8
v 25 8
v 26 8
v 27 8
v 28 8
v 29 8
v 30 8
v 31 8
v 32 8
v 33 8
v 34 7
v 35 7
v 36 7
v 37 7
v 38 7
v 39 7
v 40 7
v 41 7
v 42 7
v 43 7
v 44 7
v 45 7
v 46 7
v 47 7
v 48 7
v 49 7
v 50 6
v 51 6
v 52 6
v 53 6
v 54 6
v 55 6
v 56 6
v 57 6
v 58 6
v 59 6
v 60 6
v 61 6
v 62 6
v 63 6
v 64 6
v 65 5
v 66 5
v 67 5
v 68 5
v 69 5
v 70 5
v 71 5
v 72 5
v 73 5
v 74 4
v 75 4
v 76 4
v 77 4
v 78 4
v 79 4
v 80 4
v 81 4
v 82 4
v 83 4
v 84 3
v 85 3
v 86 3
v 87 3
v 88 3
v 89 3
v 90 3
v 91 3
v 92 3
v 93 3
v 94 3
v 95 3
v 96 3
v 97 3
v 98 2
v 99 2
v 100 2
v 101 2
v 102 2
v 103 2
v 104 2
v 105 2
v 106 2
v 107 2
v 108 1
v 109 1
v 110 1
v 111 1
v 112 1
v 113 1
v 114 1
v 115 1
v 116 1
v 117 1
v 118 1
v 119 1
e 1 2
e 1 3
e 1 5
e 1 6
e 1 7
e 1 12
e 1 14
e 1 19
e 1 21
e 1 22
e 1 27
e 1 29
e 1 35
e 1 39
e 1 41
e 1 45
e 1 56
e 1 57
e 1 58
e 1 59
e 1 60
e 1 71
e 1 75
e 1 77
e 1 78
e 1 86
e 1 87
e 1 88
e 1 90
e 1 98
e 1 107
e 1 112
e 1 115
e 2 5
e 2 6
e 2 11
e 2 12
e 2 14
e 2 19
e 2 21
e 2 22
e 2 27
e 2 29
e 2 35
e 2 39
e 2 41
e 2 43
e 2 45
e 2 57
e 2 58
e 2 59
e 2 75
e 2 77
e 2 86
e 2 87
e 2 88
e 2 90
e 2 98
e 2 107
e 2 112
e 2 115
e 2 119
e 3 4
e 3 7
e 3 8
e 3 9
e 3 10
e 3 12
e 3 14
e 3 17
e 3 22
e 3 27
e 3 36
e 3 51
e 3 52
e 3 53
e 3 54
e 3 56
e 3 74
e 3 76
e 3 78
e 3 85
e 3 86
e 3 87
e 3 90
e 3 91
e 3 94
e 3 110
e 3 111
e 3 113
e 4 7
e 4 9
e 4 10
e 4 18
e 4 20
e 4 28
e 4 31
e 4 33
e 4 36
e 4 38
e 4 47
e 4 49
e 4 51
e 4 52
e 4 53
e 4 61
e 4 73
e 4 74
e 4 78
e 4 80
e 4 85
e 4 93
e 4 103
e 4 111
e 4 114
e 4 117
e 4 118
e 5 6
e 5 11
e 5 12
e 5 14
e 5 22
e 5 23
e 5 29
e 5 32
e 5 35
e 5 39
e 5 41
e 5 43
e 5 57
e 5 58
e 5 75
e 5 86
e 5 87
e 5 88
e 5 90
e 5 98
e 5 110
e 5 112
e 5 115
e 5 119
e 6 11
e 6 14
e 6 21
e 6 22
e 6 29
e 6 32
e 6 35
e 6 39
e 6 41
e 6 43
e 6 45
e 6 57
e 6 58
e 6 59
e 6 75
e 6 87
e 6 88
e 6 90
e 6 98
e 6 107
e 6 112
e 6 115
e 6 119
e 7 9
e 7 10
e 7 19
e 7 20
e 7 22
e 7 27
e 7 53
e 7 54
e 7 56
e 7 60
e 7 71
e 7 74
e 7 75
e 7 77
e 7 78
e 7 80
e 7 88
e 7 103
e 7 111
e 7 112
e 8 12
e 8 15
e 8 17
e 8 24
e 8 34
e 8 36
e 8 51
e 8 52
e 8 54
e 8 55
e 8 65
e 8 66
e 8 76
e 8 84
e 8 85
e 8 89
e 8 91
e 8 92
e 8 94
e 8 99
e 8 110
e 8 113
e 9 10
e 9 19
e 9 20
e 9 22
e 9 27
e 9 49
e 9 53
e 9 56
e 9 60
e 9 61
e 9 71
e 9 73
e 9 74
e 9 77
e 9 78
e 9 80
e 9 103
e 9 111
e 10 18
e 10 19
e 10 20
e 10 27
e 10 49
e 10 53
e 10 56
e 10 60
e 10 61
e 10 71
e 10 73
e 10 74
e 10 78
e 10 80
e 10 103
e 10 111
e 11 29
e 11 32
e 11 35
e 11 39
e 11 41
e 11 43
e 11 57
e 11 58
e 11 87
e 11 90
e 11 115
e 11 119
e 12 13
e 12 14
e 12 17
e 12 22
e 12 23
e 12 32
e 12 34
e 12 35
e 12 37
e 12 41
e 12 43
e 12 50
e 12 54
e 12 58
e 12 65
e 12 66
e 12 76
e 12 84
e 12 86
e 12 87
e 12 90
e 12 91
e 12 94
e 12 98
e 12 108
e 12 109
e 12 110
e 12 113
e 13 14
e 13 16
e 13 23
e 13 25
e 13 26
e 13 30
e 13 34
e 13 37
e 13 40
e 13 42
e 13 46
e 13 50
e 13 62
e 13 63
e 13 65
e 13 66
e 13 67
e 13 68
e 13 82
e 13 84
e 13 96
e 13 97
e 13 98
e 13 100
e 13 102
e 13 104
e 13 105
e 13 108
e 13 109
e 13 110
e 13 113
e 14 22
e 14 23
e 14 32
e 14 34
e 14 35
e 14 41
e 14 43
e 14 50
e 14 54
e 14 58
e 14 65
e 14 66
e 14 67
e 14 84
e 14 86
e 14 87
e 14 90
e 14 91
e 14 98
e 14 108
e 14 109
e 14 110
e 14 113
e 14 115
e 14 119
e 15 17
e 15 24
e 15 34
e 15 36
e 15 44
e 15 48
e 15 51
e 15 52
e 15 54
e 15 55
e 15 64
e 15 66
e 15 70
e 15 72
e 15 76
e 15 79
e 15 81
e 15 83
e 15 85
e 15 89
e 15 91
e 15 92
e 15 94
e 15 95
e 15 99
e 15 101
e 15 106
e 15 113
e 15 116
e 16 23
e 16 25
e 16 26
e 16 30
e 16 34
e 16 37
e 16 40
e 16 42
e 16 46
e 16 50
e 16 62
e 16 63
e 16 65
e 16 66
e 16 67
e 16 68
e 16 82
e 16 84
e 16 96
e 16 97
e 16 98
e 16 100
e 16 102
e 16 104
e 16 105
e 16 108
e 16 109
e 16 110
e 17 24
e 17 34
e 17 36
e 17 37
e 17 51
e 17 52
e 17 54
e 17 55
e 17 65
e 17 66
e 17 76
e 17 84
e 17 85
e 17 86
e 17 89
e 17 91
e 17 92
e 17 94
e 17 99
e 17 104
e 17 110
e 17 113
e 18 20
e 18 28
e 18 31
e 18 33
e 18 36
e 18 38
e 18 47
e 18 51
e 18 52
e 18 53
e 18 61
e 18 69
e 18 73
e 18 74
e 18 85
e 18 89
e 18 93
e 18 103
e 18 111
e 18 114
e 18 117
e 18 118
e 19 21
e 19 22
e 19 27
e 19 29
e 19 35
e 19 39
e 19 45
e 19 56
e 19 57
e 19 59
e 19 60
e 19 71
e 19 75
e 19 77
e 19 78
e 19 80
e 19 88
e 19 107
e 19 112
e 20 28
e 20 31
e 20 33
e 20 38
e 20 47
e 20 49
e 20 53
e 20 56
e 20 61
e 20 73
e 20 74
e 20 78
e 20 80
e 20 93
e 20 103
e 20 111
e 20 117
e 21 22
e 21 27
e 21 29
e 21 35
e 21 39
e 21 45
e 21 56
e 21 57
e 21 59
e 21 60
e 21 71
e 21 75
e 21 77
e 21 88
e 21 107
e 21 112
e 22 27
e 22 35
e 22 39
e 22 41
e 22 54
e 22 56
e 22 58
e 22 59
e 22 60
e 22 71
e 22 75
e 22 77
e 22 78
e 22 80
e 22 86
e 22 87
e 22 88
e 22 90
e 22 98
e 22 112
e 22 115
e 23 25
e 23 26
e 23 32
e 23 34
e 23 37
e 23 41
e 23 43
e 23 50
e 23 54
e 23 65
e 23 66
e 23 67
e 23 68
e 23 76
e 23 84
e 23 86
e 23 87
e 23 90
e 23 91
e 23 98
e 23 102
e 23 108
e 23 109
e 23 110
e 23 113
e 24 36
e 24 38
e 24 44
e 24 51
e 24 52
e 24 53
e 24 55
e 24 69
e 24 70
e 24 72
e 24 76
e 24 79
e 24 81
e 24 85
e 24 89
e 24 92
e 24 93
e 24 94
e 24 95
e 24 99
e 24 101
e 24 106
e 24 114
e 24 116
e 24 118
e 25 26
e 25 30
e 25 34
e 25 37
e 25 40
e 25 42
e 25 46
e 25 50
e 25 62
e 25 63
e 25 65
e 25 66
e 25 67
e 25 68
e 25 82
e 25 84
e 25 96
e 25 97
e 25 100
e 25 102
e 25 104
e 25 105
e 25 108
e 25 109
e 26 30
e 26 37
e 26 40
e 26 42
e 26 46
e 26 50
e 26 62
e 26 63
e 26 65
e 26 67
e 26 68
e 26 82
e 26 84
e 26 96
e 26 97
e 26 100
e 26 102
e 26 105
e 26 108
e 26 109
e 27 35
e 27 39
e 27 56
e 27 59
e 27 60
e 27 71
e 27 75
e 27 77
e 27 78
e 27 80
e 27 88
e 27 90
e 27 103
e 27 111
e 27 112
e 28 31
e 28 33
e 28 36
e 28 38
e 28 47
e 28 51
e 28 52
e 28 53
e 28 61
e 28 69
e 28 73
e 28 74
e 28 85
e 28 93
e 28 103
e 28 111
e 28 114
e 28 117
e 28 118
e 29 35
e 29 39
e 29 41
e 29 45
e 29 57
e 29 58
e 29 59
e 29 75
e 29 77
e 29 88
e 29 107
e 29 112
e 29 115
e 29 119
e 30 37
e 30 40
e 30 42
e 30 46
e 30 50
e 30 62
e 30 63
e 30 67
e 30 68
e 30 82
e 30 84
e 30 97
e 30 100
e 30 102
e 30 105
e 30 108
e 30 109
e 31 33
e 31 36
e 31 38
e 31 47
e 31 52
e 31 53
e 31 61
e 31 69
e 31 73
e 31 74
e 31 85
e 31 93
e 31 111
e 31 114
e 31 117
e 31 118
e 32 41
e 32 43
e 32 50
e 32 58
e 32 67
e 32 86
e 32 87
e 32 90
e 32 98
e 32 105
e 32 108
e 32 109
e 32 115
e 32 119
e 33 36
e 33 38
e 33 47
e 33 53
e 33 61
e 33 69
e 33 73
e 33 74
e 33 85
e 33 93
e 33 111
e 33 114
e 33 117
e 33 118
e 34 37
e 34 40
e 34 50
e 34 54
e 34 65
e 34 66
e 34 67
e 34 68
e 34 76
e 34 82
e 34 84
e 34 86
e 34 91
e 34 92
e 34 94
e 34 96
e 34 98
e 34 99
e 34 104
e 34 108
e 34 109
e 34 110
e 34 113
e 35 39
e 35 41
e 35 43
e 35 45
e 35 57
e 35 58
e 35 59
e 35 75
e 35 77
e 35 86
e 35 87
e 35 88
e 35 90
e 35 98
e 35 107
e 35 112
e 35 115
e 35 119
e 36 38
e 36 51
e 36 52
e 36 53
e 36 54
e 36 69
e 36 74
e 36 76
e 36 79
e 36 85
e 36 89
e 36 93
e 36 94
e 36 99
e 36 101
e 36 111
e 36 114
e 36 116
e 36 117
e 36 118
e 37 40
e 37 42
e 37 50
e 37 65
e 37 66
e 37 67
e 37 68
e 37 76
e 37 82
e 37 84
e 37 91
e 37 92
e 37 96
e 37 98
e 37 100
e 37 102
e 37 104
e 37 108
e 37 109
e 37 110
e 37 113
e 38 47
e 38 51
e 38 52
e 38 53
e 38 61
e 38 69
e 38 73
e 38 74
e 38 85
e 38 89
e 38 93
e 38 101
e 38 103
e 38 111
e 38 114
e 38 117
e 38 118
e 39 41
e 39 45
e 39 57
e 39 58
e 39 59
e 39 75
e 39 77
e 39 87
e 39 88
e 39 90
e 39 107
e 39 112
e 39 115
e 39 119
e 40 42
e 40 46
e 40 50
e 40 62
e 40 63
e 40 65
e 40 66
e 40 67
e 40 68
e 40 82
e 40 84
e 40 96
e 40 100
e 40 102
e 40 104
e 40 108
e 40 109
e 41 43
e 41 57
e 41 58
e 41 86
e 41 87
e 41 88
e 41 90
e 41 98
e 41 115
e 41 119
e 42 46
e 42 50
e 42 62
e 42 63
e 42 65
e 42 67
e 42 68
e 42 82
e 42 84
e 42 96
e 42 97
e 42 100
e 42 102
e 42 105
e 42 108
e 42 109
e 43 50
e 43 58
e 43 67
e 43 86
e 43 87
e 43 90
e 43 98
e 43 108
e 43 109
e 43 115
e 43 119
e 44 48
e 44 55
e 44 64
e 44 70
e 44 72
e 44 79
e 44 81
e 44 83
e 44 89
e 44 92
e 44 95
e 44 99
e 44 101
e 44 106
e 44 116
e 45 57
e 45 59
e 45 60
e 45 75
e 45 77
e 45 88
e 45 107
e 45 112
e 45 115
e 46 50
e 46 62
e 46 63
e 46 67
e 46 97
e 46 100
e 46 102
e 46 105
e 46 108
e 46 109
e 47 49
e 47 53
e 47 61
e 47 73
e 47 74
e 47 93
e 47 103
e 47 111
e 47 114
e 47 117
e 48 55
e 48 64
e 48 70
e 48 72
e 48 81
e 48 83
e 48 92
e 48 95
e 48 99
e 48 104
e 48 106
e 49 61
e 49 71
e 49 73
e 49 74
e 49 78
e 49 80
e 49 103
e 49 111
e 50 62
e 50 63
e 50 65
e 50 66
e 50 67
e 50 68
e 50 84
e 50 86
e 50 87
e 50 97
e 50 98
e 50 100
e 50 102
e 50 105
e 50 108
e 50 109
e 50 110
e 51 52
e 51 53
e 51 54
e 51 55
e 51 69
e 51 70
e 51 74
e 51 76
e 51 79
e 51 85
e 51 89
e 51 91
e 51 93
e 51 94
e 51 99
e 51 101
e 51 113
e 51 114
e 51 116
e 51 118
e 52 53
e 52 54
e 52 69
e 52 74
e 52 76
e 52 79
e 52 85
e 52 89
e 52 91
e 52 93
e 52 94
e 52 99
e 52 101
e 52 111
e 52 113
e 52 114
e 52 116
e 52 118
e 53 61
e 53 69
e 53 73
e 53 74
e 53 78
e 53 85
e 53 89
e 53 93
e 53 103
e 53 111
e 53 114
e 53 117
e 53 118
e 54 65
e 54 66
e 54 74
e 54 76
e 54 84
e 54 85
e 54 86
e 54 87
e 54 89
e 54 91
e 54 94
e 54 98
e 54 99
e 54 110
e 54 113
e 55 64
e 55 69
e 55 70
e 55 72
e 55 79
e 55 81
e 55 83
e 55 85
e 55 89
e 55 92
e 55 95
e 55 99
e 55 101
e 55 106
e 55 116
e 56 59
e 56 60
e 56 71
e 56 74
e 56 75
e 56 77
e 56 78
e 56 80
e 56 88
e 56 103
e 56 111
e 56 112
e 57 58
e 57 59
e 57 75
e 57 77
e 57 88
e 57 107
e 57 112
e 57 115
e 57 119
e 58 86
e 58 87
e 58 90
e 58 98
e 58 115
e 58 119
e 59 60
e 59 71
e 59 75
e 59 77
e 59 88
e 59 107
e 59 112
e 60 71
e 60 75
e 60 77
e 60 78
e 60 80
e 60 88
e 60 103
e 60 107
e 60 112
e 61 73
e 61 74
e 61 93
e 61 103
e 61 111
e 61 114
e 61 117
e 62 63
e 62 67
e 62 82
e 62 97
e 62 100
e 62 102
e 62 105
e 62 108
e 62 109
e 63 67
e 63 97
e 63 100
e 63 102
e 63 105
e 63 108
e 63 109
e 64 70
e 64 72
e 64 81
e 64 83
e 64 92
e 64 95
e 64 99
e 64 104
e 64 106
e 65 66
e 65 67
e 65 68
e 65 76
e 65 82
e 65 84
e 65 86
e 65 91
e 65 92
e 65 94
e 65 96
e 65 98
e 65 100
e 65 102
e 65 104
e 65 108
e 65 109
e 65 110
e 65 113
e 66 68
e 66 76
e 66 82
e 66 84
e 66 86
e 66 91
e 66 92
e 66 94
e 66 96
e 66 98
e 66 99
e 66 104
e 66 108
e 66 109
e 66 110
e 66 113
e 67 68
e 67 84
e 67 97
e 67 98
e 67 100
e 67 102
e 67 105
e 67 108
e 67 109
e 67 110
e 68 82
e 68 84
e 68 92
e 68 96
e 68 100
e 68 102
e 68 104
e 68 108
e 68 110
e 69 70
e 69 72
e 69 79
e 69 81
e 69 85
e 69 89
e 69 93
e 69 101
e 69 114
e 69 116
e 69 117
e 69 118
e 70 72
e 70 79
e 70 81
e 70 83
e 70 85
e 70 89
e 70 92
e 70 95
e 70 99
e 70 101
e 70 106
e 70 116
e 71 75
e 71 77
e 71 78
e 71 80
e 71 88
e 71 103
e 71 112
e 72 79
e 72 81
e 72 83
e 72 89
e 72 92
e 72 95
e 72 99
e 72 101
e 72 106
e 72 116
e 73 74
e 73 80
e 73 103
e 73 111
e 73 117
e 74 78
e 74 80
e 74 85
e 74 93
e 74 103
e 74 111
e 74 114
e 74 117
e 75 77
e 75 78
e 75 80
e 75 88
e 75 90
e 75 107
e 75 112
e 75 115
e 76 84
e 76 85
e 76 86
e 76 89
e 76 91
e 76 92
e 76 94
e 76 99
e 76 110
e 76 113
e 77 78
e 77 80
e 77 88
e 77 107
e 77 112
e 78 80
e 78 88
e 78 103
e 78 111
e 78 112
e 79 81
e 79 83
e 79 85
e 79 89
e 79 95
e 79 99
e 79 101
e 79 106
e 79 114
e 79 116
e 79 118
e 80 88
e 80 103
e 80 111
e 80 112
e 81 83
e 81 89
e 81 92
e 81 95
e 81 99
e 81 101
e 81 106
e 81 116
e 82 84
e 82 96
e 82 100
e 82 102
e 82 104
e 83 92
e 83 95
e 83 99
e 83 101
e 83 106
e 83 116
e 84 86
e 84 87
e 84 91
e 84 94
e 84 96
e 84 98
e 84 100
e 84 102
e 84 104
e 84 108
e 84 109
e 84 110
e 84 113
e 85 89
e 85 93
e 85 94
e 85 99
e 85 101
e 85 114
e 85 116
e 85 117
e 85 118
e 86 87
e 86 90
e 86 91
e 86 94
e 86 98
e 86 108
e 86 109
e 86 110
e 86 113
e 86 115
e 87 88
e 87 90
e 87 91
e 87 98
e 87 108
e 87 109
e 87 110
e 87 113
e 87 115
e 87 119
e 88 90
e 88 107
e 88 112
e 88 115
e 89 93
e 89 94
e 89 95
e 89 99
e 89 101
e 89 114
e 89 116
e 89 118
e 90 91
e 90 98
e 90 108
e 90 110
e 90 112
e 90 115
e 90 119
e 91 94
e 91 98
e 91 99
e 91 108
e 91 110
e 91 113
e 92 94
e 92 95
e 92 96
e 92 99
e 92 104
e 92 106
e 93 101
e 93 111
e 93 114
e 93 116
e 93 117
e 93 118
e 94 99
e 94 110
e 94 113
e 95 99
e 95 101
e 95 106
e 95 116
e 96 100
e 96 104
e 97 100
e 97 102
e 97 105
e 97 109
e 98 108
e 98 109
e 98 110
e 98 113
e 98 115
e 98 119
e 99 101
e 99 104
e 99 106
e 99 113
e 99 116
e 100 102
e 100 104
e 100 105
e 100 108
e 100 109
e 101 106
e 101 114
e 101 116
e 101 118
e 102 105
e 102 108
e 102 109
e 103 111
e 103 117
e 105 108
e 105 109
e 106 116
e 107 112
e 108 109
e 108 110
e 108 113
e 109 110
e 110 113
e 111 114
e 111 117
e 112 115
e 114 116
e 114 117
e 114 118
e 115 119
e 116 118
e 117 118
